; parting-the-wild-horses-maneXbrush-knee-manual-interpolation-1
(set-info :status unknown)
(set-logic QF_AUFLIRA)
(declare-fun |HandRight Norm| () Real)
(declare-fun |HandRight Z| () Real)
(declare-fun |SpineMid Norm| () Real)
(declare-fun |SpineShoulder Norm| () Real)
(declare-fun |ShoulderRight Norm| () Real)
(declare-fun |ShoulderRight Z| () Real)
(declare-fun |ElbowRight Norm| () Real)
(declare-fun |WristRight Norm| () Real)
(declare-fun |HandLeft Norm| () Real)
(declare-fun |HandLeft Z| () Real)
(declare-fun |ShoulderLeft Norm| () Real)
(declare-fun |ShoulderLeft Z| () Real)
(declare-fun |ElbowLeft Norm| () Real)
(declare-fun |WristLeft Norm| () Real)
(declare-fun |HandRight Y| () Real)
(declare-fun |ShoulderRight Y| () Real)
(declare-fun |HandLeft Y| () Real)
(declare-fun |ShoulderLeft Y| () Real)
(declare-fun |HandRight X| () Real)
(declare-fun |ShoulderRight X| () Real)
(declare-fun |HandLeft X| () Real)
(declare-fun |ShoulderLeft X| () Real)
(declare-fun |AnkleLeft Z| () Real)
(declare-fun |KneeRight Z| () Real)
(declare-fun |AnkleLeft Y| () Real)
(declare-fun |KneeRight Y| () Real)
(declare-fun |AnkleLeft X| () Real)
(declare-fun |KneeRight X| () Real)
(declare-fun |KneeLeft Z| () Real)
(declare-fun |KneeLeft Y| () Real)
(declare-fun |KneeLeft X| () Real)
(declare-fun |ThumbRight Z| () Real)
(declare-fun |ThumbRight Y| () Real)
(declare-fun |ThumbRight X| () Real)
(assert
(let (($x1877 (and true true)))
(let ((?x3920 (* |HandRight Z| |HandRight Norm|)))
(let ((?x11261 (* 0.0 |SpineMid Norm|)))
(let ((?x2430 (* 0.0 |SpineShoulder Norm|)))
(let ((?x4101 (* |ShoulderRight Z| |ShoulderRight Norm|)))
(let ((?x179 (* (~ (/ 1.0 2.0)) 0.0)))
(let ((?x6594 (* (/ 433.0 500.0) 1.0)))
(let ((?x6919 (+ ?x6594 ?x179)))
(let ((?x176 (* (/ 1.0 2.0) 0.0)))
(let ((?x6121 (+ ?x6594 ?x176)))
(let (($x350 (>= 1.0 0.0)))
(let ((?x4940 (ite $x350 ?x6121 ?x6919)))
(let ((?x351 (- 0.0 1.0)))
(let ((?x352 (ite $x350 1.0 ?x351)))
(let ((?x113 (- 0.0 0.0)))
(let (($x112 (>= 0.0 0.0)))
(let ((?x114 (ite $x112 0.0 ?x113)))
(let (($x5024 (>= ?x114 ?x352)))
(let ((?x4943 (ite $x5024 1.0 ?x4940)))
(let ((?x1115 (* ?x4943 |ElbowRight Norm|)))
(let ((?x931 (* 1.0 |WristRight Norm|)))
(let ((?x5111 (+ 0.0 ?x3920)))
(let ((?x7504 (+ ?x5111 ?x931)))
(let ((?x2663 (+ ?x7504 ?x1115)))
(let ((?x7250 (+ ?x2663 ?x4101)))
(let ((?x7063 (+ ?x7250 ?x2430)))
(let ((?x11339 (+ ?x7063 ?x11261)))
(let ((?x6220 (+ ?x11339 ?x3920)))
(let ((?x5357 (* |HandLeft Z| |HandLeft Norm|)))
(let ((?x420 (* |ShoulderLeft Z| |ShoulderLeft Norm|)))
(let ((?x169 (* (/ 433.0 500.0) 0.0)))
(let ((?x4162 (+ ?x169 ?x179)))
(let ((?x5213 (+ ?x169 ?x176)))
(let ((?x4938 (ite $x112 ?x5213 ?x4162)))
(let ((?x4935 (ite $x5024 ?x4938 0.0)))
(let ((?x5544 (* (~ (/ 1.0 2.0)) ?x4935)))
(let ((?x3851 (* (/ 433.0 500.0) ?x4943)))
(let ((?x3977 (+ ?x3851 ?x5544)))
(let ((?x4919 (* (/ 1.0 2.0) ?x4935)))
(let ((?x4857 (+ ?x3851 ?x4919)))
(let (($x3029 (>= ?x4943 0.0)))
(let ((?x7497 (ite $x3029 ?x4857 ?x3977)))
(let ((?x3639 (- 0.0 ?x4943)))
(let ((?x4903 (ite $x3029 ?x4943 ?x3639)))
(let ((?x6426 (* (/ 1.0 2.0) 1.0)))
(let ((?x7006 (+ ?x6426 ?x169)))
(let ((?x6458 (* (~ (/ 1.0 2.0)) 1.0)))
(let ((?x6448 (+ ?x6458 ?x169)))
(let ((?x4934 (ite $x350 ?x6448 ?x7006)))
(let ((?x5101 (+ ?x176 ?x169)))
(let ((?x3898 (+ ?x179 ?x169)))
(let ((?x4932 (ite $x112 ?x3898 ?x5101)))
(let ((?x4937 (ite $x5024 ?x4932 ?x4934)))
(let ((?x4954 (- 0.0 ?x4937)))
(let (($x4059 (>= ?x4937 0.0)))
(let ((?x3911 (ite $x4059 ?x4937 ?x4954)))
(let (($x5230 (>= ?x3911 ?x4903)))
(let ((?x6744 (ite $x5230 ?x4943 ?x7497)))
(let ((?x7153 (* ?x6744 |ElbowLeft Norm|)))
(let ((?x11578 (ite $x3029 ?x3977 ?x4857)))
(let ((?x9221 (ite $x5230 ?x4943 ?x11578)))
(let ((?x3481 (* ?x9221 |WristLeft Norm|)))
(let ((?x4357 (+ 0.0 ?x5357)))
(let ((?x6989 (+ ?x4357 ?x3481)))
(let ((?x5420 (+ ?x6989 ?x7153)))
(let ((?x7684 (+ ?x5420 ?x420)))
(let ((?x1906 (+ ?x7684 ?x2430)))
(let ((?x8280 (+ ?x1906 ?x11261)))
(let ((?x6496 (+ ?x8280 ?x5357)))
(let ((?x10936 (- ?x6496 ?x6220)))
(let ((?x7646 (- 0.0 ?x10936)))
(let (($x7035 (>= ?x10936 0.0)))
(let ((?x6838 (ite $x7035 ?x10936 ?x7646)))
(let ((?x4421 (* |HandRight Y| |HandRight Norm|)))
(let ((?x11271 (* 1.0 |SpineMid Norm|)))
(let ((?x4285 (* 1.0 |SpineShoulder Norm|)))
(let ((?x5302 (* |ShoulderRight Y| |ShoulderRight Norm|)))
(let ((?x9367 (* ?x4937 |ElbowRight Norm|)))
(let ((?x8968 (* 0.0 |WristRight Norm|)))
(let ((?x4697 (+ 0.0 ?x4421)))
(let ((?x10981 (+ ?x4697 ?x8968)))
(let ((?x6209 (+ ?x10981 ?x9367)))
(let ((?x2672 (+ ?x6209 ?x5302)))
(let ((?x7015 (+ ?x2672 ?x4285)))
(let ((?x6196 (+ ?x7015 ?x11271)))
(let ((?x9384 (+ ?x6196 ?x4421)))
(let ((?x5556 (* |HandLeft Y| |HandLeft Norm|)))
(let ((?x417 (* |ShoulderLeft Y| |ShoulderLeft Norm|)))
(let ((?x4709 (* (/ 433.0 500.0) ?x4935)))
(let ((?x719 (* (/ 1.0 2.0) ?x4943)))
(let ((?x3692 (+ ?x719 ?x4709)))
(let ((?x5473 (* (~ (/ 1.0 2.0)) ?x4943)))
(let ((?x5102 (+ ?x5473 ?x4709)))
(let ((?x6106 (ite $x3029 ?x5102 ?x3692)))
(let ((?x4529 (* (/ 1.0 2.0) ?x4937)))
(let ((?x5219 (+ ?x4529 ?x4709)))
(let ((?x3881 (* (~ (/ 1.0 2.0)) ?x4937)))
(let ((?x5166 (+ ?x3881 ?x4709)))
(let ((?x6803 (ite $x4059 ?x5166 ?x5219)))
(let ((?x7219 (ite $x5230 ?x6803 ?x6106)))
(let ((?x6918 (* ?x7219 |ElbowLeft Norm|)))
(let ((?x6112 (ite $x3029 ?x3692 ?x5102)))
(let ((?x2183 (ite $x4059 ?x5219 ?x5166)))
(let ((?x6166 (ite $x5230 ?x2183 ?x6112)))
(let ((?x9383 (* ?x6166 |WristLeft Norm|)))
(let ((?x3426 (+ 0.0 ?x5556)))
(let ((?x11548 (+ ?x3426 ?x9383)))
(let ((?x3498 (+ ?x11548 ?x6918)))
(let ((?x5051 (+ ?x3498 ?x417)))
(let ((?x994 (+ ?x5051 ?x4285)))
(let ((?x8494 (+ ?x994 ?x11271)))
(let ((?x7668 (+ ?x8494 ?x5556)))
(let ((?x3483 (- ?x7668 ?x9384)))
(let ((?x11886 (- 0.0 ?x3483)))
(let (($x7602 (>= ?x3483 0.0)))
(let ((?x2118 (ite $x7602 ?x3483 ?x11886)))
(let ((?x5582 (* |HandRight X| |HandRight Norm|)))
(let ((?x5113 (* |ShoulderRight X| |ShoulderRight Norm|)))
(let ((?x3476 (* ?x4935 |ElbowRight Norm|)))
(let ((?x4842 (+ 0.0 ?x5582)))
(let ((?x9709 (+ ?x4842 ?x8968)))
(let ((?x9037 (+ ?x9709 ?x3476)))
(let ((?x2434 (+ ?x9037 ?x5113)))
(let ((?x10676 (+ ?x2434 ?x2430)))
(let ((?x3076 (+ ?x10676 ?x11261)))
(let ((?x3976 (+ ?x3076 ?x5582)))
(let ((?x5403 (* |HandLeft X| |HandLeft Norm|)))
(let ((?x416 (* |ShoulderLeft X| |ShoulderLeft Norm|)))
(let ((?x5445 (* (/ 433.0 500.0) ?x4937)))
(let ((?x4772 (+ ?x5445 ?x5544)))
(let ((?x4184 (+ ?x5445 ?x4919)))
(let ((?x5043 (ite $x4059 ?x4184 ?x4772)))
(let ((?x5726 (ite $x5230 ?x5043 ?x4937)))
(let ((?x11040 (* ?x5726 |ElbowLeft Norm|)))
(let ((?x7309 (ite $x4059 ?x4772 ?x4184)))
(let ((?x10975 (ite $x5230 ?x7309 ?x4937)))
(let ((?x3290 (* ?x10975 |WristLeft Norm|)))
(let ((?x4526 (+ 0.0 ?x5403)))
(let ((?x3701 (+ ?x4526 ?x3290)))
(let ((?x9100 (+ ?x3701 ?x11040)))
(let ((?x9229 (+ ?x9100 ?x416)))
(let ((?x7764 (+ ?x9229 ?x2430)))
(let ((?x7626 (+ ?x7764 ?x11261)))
(let ((?x9901 (+ ?x7626 ?x5403)))
(let ((?x5011 (- ?x9901 ?x3976)))
(let ((?x4916 (- 0.0 ?x5011)))
(let (($x10715 (>= ?x5011 0.0)))
(let ((?x6229 (ite $x10715 ?x5011 ?x4916)))
(let (($x11621 (>= ?x6229 ?x2118)))
(let ((?x7403 (ite $x11621 ?x6229 ?x2118)))
(let (($x3514 (>= ?x7403 ?x6838)))
(let ((?x11372 (ite $x3514 ?x7403 ?x6838)))
(let (($x1942 (< ?x11372 (/ 1.0 5.0))))
(let (($x8719 (not $x1942)))
(let ((?x6870 (+ ?x9384 (/ 1.0 10.0))))
(let (($x6624 (> ?x7668 ?x6870)))
(let (($x10502 (and true $x6624)))
(let (($x142 (and $x10502 $x8719)))
(let ((?x1437 (* 0.0 |ElbowLeft Norm|)))
(let ((?x1962 (* 1.0 |WristLeft Norm|)))
(let ((?x9584 (+ ?x4357 ?x1962)))
(let ((?x1196 (+ ?x9584 ?x1437)))
(let ((?x9576 (+ ?x1196 ?x420)))
(let ((?x2657 (+ ?x9576 ?x2430)))
(let ((?x6755 (+ ?x2657 ?x11261)))
(let ((?x558 (+ ?x6755 ?x5357)))
(let ((?x11508 (* 0.0 |ElbowRight Norm|)))
(let ((?x10949 (+ ?x7504 ?x11508)))
(let ((?x7055 (+ ?x10949 ?x4101)))
(let ((?x6359 (+ ?x7055 ?x2430)))
(let ((?x10540 (+ ?x6359 ?x11261)))
(let ((?x2328 (+ ?x10540 ?x3920)))
(let ((?x1211 (- ?x2328 ?x558)))
(let ((?x6975 (- 0.0 ?x1211)))
(let (($x7215 (>= ?x1211 0.0)))
(let ((?x5857 (ite $x7215 ?x1211 ?x6975)))
(let ((?x6432 (* (~ 1.0) |ElbowLeft Norm|)))
(let ((?x1158 (* 0.0 |WristLeft Norm|)))
(let ((?x8917 (+ ?x3426 ?x1158)))
(let ((?x2644 (+ ?x8917 ?x6432)))
(let ((?x11876 (+ ?x2644 ?x417)))
(let ((?x9933 (+ ?x11876 ?x4285)))
(let ((?x9056 (+ ?x9933 ?x11271)))
(let ((?x10811 (+ ?x9056 ?x5556)))
(let ((?x6247 (* (~ 1.0) |ElbowRight Norm|)))
(let ((?x8608 (+ ?x10981 ?x6247)))
(let ((?x6263 (+ ?x8608 ?x5302)))
(let ((?x3324 (+ ?x6263 ?x4285)))
(let ((?x1025 (+ ?x3324 ?x11271)))
(let ((?x7651 (+ ?x1025 ?x4421)))
(let ((?x3860 (- ?x7651 ?x10811)))
(let ((?x6767 (- 0.0 ?x3860)))
(let (($x7988 (>= ?x3860 0.0)))
(let ((?x7892 (ite $x7988 ?x3860 ?x6767)))
(let ((?x5148 (+ ?x4526 ?x1158)))
(let ((?x11131 (+ ?x5148 ?x1437)))
(let ((?x1944 (+ ?x11131 ?x416)))
(let ((?x11812 (+ ?x1944 ?x2430)))
(let ((?x2653 (+ ?x11812 ?x11261)))
(let ((?x6390 (+ ?x2653 ?x5403)))
(let ((?x11037 (+ ?x9709 ?x11508)))
(let ((?x1017 (+ ?x11037 ?x5113)))
(let ((?x11301 (+ ?x1017 ?x2430)))
(let ((?x8851 (+ ?x11301 ?x11261)))
(let ((?x9427 (+ ?x8851 ?x5582)))
(let ((?x1266 (- ?x9427 ?x6390)))
(let ((?x7607 (- 0.0 ?x1266)))
(let (($x2949 (>= ?x1266 0.0)))
(let ((?x2938 (ite $x2949 ?x1266 ?x7607)))
(let (($x644 (>= ?x2938 ?x7892)))
(let ((?x1515 (ite $x644 ?x2938 ?x7892)))
(let (($x8789 (>= ?x1515 ?x5857)))
(let ((?x9536 (ite $x8789 ?x1515 ?x5857)))
(let (($x11530 (< ?x9536 (/ 1.0 5.0))))
(let (($x7255 (not $x11530)))
(let ((?x3311 (+ ?x10811 (/ 1.0 10.0))))
(let (($x7402 (> ?x7651 ?x3311)))
(let (($x4441 (and true $x7402)))
(let (($x7108 (and $x4441 $x7255)))
(let ((?x7295 (- |KneeRight Z| |AnkleLeft Z|)))
(let ((?x6363 (- 0.0 ?x7295)))
(let (($x6338 (>= ?x7295 0.0)))
(let ((?x5940 (ite $x6338 ?x7295 ?x6363)))
(let ((?x6352 (- |KneeRight Y| |AnkleLeft Y|)))
(let ((?x6197 (- 0.0 ?x6352)))
(let (($x6650 (>= ?x6352 0.0)))
(let ((?x6337 (ite $x6650 ?x6352 ?x6197)))
(let ((?x6331 (- |KneeRight X| |AnkleLeft X|)))
(let ((?x6773 (- 0.0 ?x6331)))
(let (($x6768 (>= ?x6331 0.0)))
(let ((?x6060 (ite $x6768 ?x6331 ?x6773)))
(let (($x6532 (>= ?x6060 ?x6337)))
(let ((?x6577 (ite $x6532 ?x6060 ?x6337)))
(let (($x6471 (>= ?x6577 ?x5940)))
(let ((?x6520 (ite $x6471 ?x6577 ?x5940)))
(let (($x5939 (< ?x6520 (/ 347.0 1000.0))))
(let (($x6538 (not $x5939)))
(let ((?x7276 (- |KneeLeft Z| |AnkleLeft Z|)))
(let ((?x7288 (- 0.0 ?x7276)))
(let (($x7287 (>= ?x7276 0.0)))
(let ((?x7290 (ite $x7287 ?x7276 ?x7288)))
(let ((?x7275 (- |KneeLeft Y| |AnkleLeft Y|)))
(let ((?x7284 (- 0.0 ?x7275)))
(let (($x7282 (>= ?x7275 0.0)))
(let ((?x7285 (ite $x7282 ?x7275 ?x7284)))
(let ((?x7273 (- |KneeLeft X| |AnkleLeft X|)))
(let ((?x7279 (- 0.0 ?x7273)))
(let (($x7278 (>= ?x7273 0.0)))
(let ((?x7281 (ite $x7278 ?x7273 ?x7279)))
(let (($x7094 (>= ?x7281 ?x7285)))
(let ((?x7095 (ite $x7094 ?x7281 ?x7285)))
(let (($x7096 (>= ?x7095 ?x7290)))
(let ((?x7097 (ite $x7096 ?x7095 ?x7290)))
(let (($x7099 (< ?x7097 (/ 347.0 1000.0))))
(let (($x6204 (not $x7099)))
(let (($x6275 (and true $x6204)))
(let (($x6539 (and $x6275 $x6538)))
(let ((?x6175 (+ 0.0 ?x6247)))
(let ((?x6580 (+ ?x6175 ?x5302)))
(let ((?x8207 (+ ?x6580 ?x4285)))
(let ((?x11011 (+ ?x8207 ?x11271)))
(let ((?x10914 (+ ?x11011 ?x6247)))
(let ((?x10532 (- ?x10914 (/ 1.0 10.0))))
(let ((?x7610 (+ 0.0 ?x8968)))
(let ((?x10523 (+ ?x7610 ?x6247)))
(let ((?x7370 (+ ?x10523 ?x5302)))
(let ((?x2668 (+ ?x7370 ?x4285)))
(let ((?x7020 (+ ?x2668 ?x11271)))
(let ((?x6349 (+ ?x7020 ?x8968)))
(let (($x1765 (< ?x6349 ?x10532)))
(let ((?x11521 (+ 0.0 ?x1158)))
(let ((?x8400 (+ ?x11521 ?x6432)))
(let ((?x144 (+ ?x8400 ?x417)))
(let ((?x7185 (+ ?x144 ?x4285)))
(let ((?x7695 (+ ?x7185 ?x11271)))
(let ((?x9819 (+ ?x7695 ?x1158)))
(let (($x1198 (< ?x9819 ?x10532)))
(let ((?x7165 (+ 0.0 ?x6432)))
(let ((?x6101 (+ ?x7165 ?x417)))
(let ((?x10616 (+ ?x6101 ?x4285)))
(let ((?x2510 (+ ?x10616 ?x11271)))
(let ((?x2511 (+ ?x2510 ?x6432)))
(let ((?x624 (- ?x2511 (/ 1.0 10.0))))
(let (($x6941 (< ?x6349 ?x624)))
(let (($x9307 (< ?x9819 ?x624)))
(let (($x3080 (and true $x9307)))
(let (($x1287 (and $x3080 $x6941)))
(let (($x10764 (and $x1287 $x1198)))
(let (($x11241 (and $x10764 $x1765)))
(let (($x6632 (and $x1877 true)))
(let (($x11278 (and $x6632 $x11241)))
(let (($x7039 (and $x11278 $x6539)))
(let (($x4053 (and $x7039 $x7108)))
(let (($x7353 (and $x4053 true)))
(let (($x4389 (and $x7353 true)))
(let (($x10825 (and $x4389 true)))
(let (($x5852 (and $x10825 true)))
(let (($x10526 (and $x5852 true)))
(let (($x9471 (and $x10526 true)))
(let (($x2449 (and $x9471 $x142)))
(let ((?x3957 (- |ThumbRight Z| |ThumbRight Z|)))
(let ((?x5304 (- 0.0 ?x3957)))
(let (($x5305 (>= ?x3957 0.0)))
(let ((?x5307 (ite $x5305 ?x3957 ?x5304)))
(let ((?x2491 (- |ThumbRight Y| |ThumbRight Y|)))
(let ((?x5299 (- 0.0 ?x2491)))
(let (($x5279 (>= ?x2491 0.0)))
(let ((?x5303 (ite $x5279 ?x2491 ?x5299)))
(let ((?x5477 (- |ThumbRight X| |ThumbRight X|)))
(let ((?x5278 (- 0.0 ?x5477)))
(let (($x3697 (>= ?x5477 0.0)))
(let ((?x5294 (ite $x3697 ?x5477 ?x5278)))
(let (($x5085 (>= ?x5294 ?x5303)))
(let ((?x4985 (ite $x5085 ?x5294 ?x5303)))
(let (($x4577 (>= ?x4985 ?x5307)))
(let ((?x3992 (ite $x4577 ?x4985 ?x5307)))
(let (($x5034 (< ?x3992 15.0)))
(let (($x1404 (and $x5034)))
(and $x1404 $x2449 $x1877))))))))))))))))))))))))))))))))))))))))))))))))))))))))))))))))))))))))))))))))))))))))))))))))))))))))))))))))))))))))))))))))))))))))))))))))))))))))))))))))))))))))))))))))))))))))))))))))))))))))))))))))))))))))))))))))))))))))))))))))))))))))))))))))))))))))))))))))))))))))))))))))))))))))))))))))))))))))))))))))
(check-sat)
